(set-logic QF_ALL)
(set-option :produce-models true)
(declare-fun USERS () (Set (Tuple Int Int)))
(assert (= USERS (set.insert (tuple 12 12) 
(tuple 3 3) 
(tuple 9 9) 
(tuple 1 1) 
(tuple 17 17) 
(tuple 22 22) 
(tuple 15 15) 
(set.singleton (tuple 5 5)))))
(declare-fun ASSIGN* (Int) (Set (Tuple Int Int)))
(assert (= (ASSIGN* 0) (set.insert (tuple 17 13) 
(tuple 10 10) 
(tuple 9 10) 
(tuple 6 13) 
(tuple 17 17) 
(tuple 7 21) 
(tuple 12 19) 
(tuple 18 21) 
(tuple 16 21) 
(tuple 5 21) 
(tuple 8 21) 
(tuple 17 21) 
(tuple 12 12) 
(tuple 10 21) 
(tuple 23 21) 
(tuple 3 11) 
(tuple 11 21) 
(tuple 18 18) 
(tuple 22 22) 
(tuple 15 15) 
(tuple 6 21) 
(tuple 22 2) 
(tuple 19 21) 
(tuple 3 3) 
(tuple 4 4) 
(tuple 12 21) 
(tuple 1 1) 
(tuple 2 2) 
(tuple 20 21) 
(tuple 14 14) 
(tuple 1 21) 
(tuple 5 11) 
(tuple 22 21) 
(tuple 21 21) 
(tuple 13 21) 
(tuple 13 13) 
(tuple 1 8) 
(tuple 4 21) 
(tuple 19 19) 
(tuple 23 23) 
(tuple 9 21) 
(tuple 16 16) 
(tuple 14 21) 
(tuple 20 20) 
(tuple 3 21) 
(tuple 11 11) 
(tuple 9 9) 
(tuple 15 8) 
(tuple 5 5) 
(tuple 8 8) 
(tuple 15 21) 
(tuple 6 6) 
(tuple 7 7) 
(set.singleton (tuple 2 21)))))
(declare-fun ASSIGN (Int) (Set (Tuple Int Int)))
(assert (= (ASSIGN 0) (set.insert (tuple 3 3) 
(tuple 4 4) 
(tuple 17 13) 
(tuple 10 10) 
(tuple 9 10) 
(tuple 1 1) 
(tuple 6 13) 
(tuple 17 17) 
(tuple 2 2) 
(tuple 7 21) 
(tuple 20 21) 
(tuple 12 19) 
(tuple 14 14) 
(tuple 18 21) 
(tuple 16 21) 
(tuple 5 11) 
(tuple 8 21) 
(tuple 13 21) 
(tuple 13 13) 
(tuple 12 12) 
(tuple 4 21) 
(tuple 1 8) 
(tuple 10 21) 
(tuple 19 19) 
(tuple 23 23) 
(tuple 23 21) 
(tuple 14 21) 
(tuple 16 16) 
(tuple 20 20) 
(tuple 3 11) 
(tuple 11 21) 
(tuple 9 9) 
(tuple 11 11) 
(tuple 15 8) 
(tuple 18 18) 
(tuple 22 22) 
(tuple 15 15) 
(tuple 22 2) 
(tuple 5 5) 
(tuple 8 8) 
(tuple 6 6) 
(tuple 19 21) 
(tuple 2 21) 
(set.singleton (tuple 7 7)))))
(declare-fun ASSOC (Int) (Set (Tuple Int Int Int)))

(assert (= (ASSOC 0) (set.insert(tuple 4 26 20) 
(tuple 14 28 20) 
(tuple 16 25 20) 
(tuple 18 25 20) 
(tuple 19 27 20) 
(tuple 23 24 20) 
(tuple 4 26 20) 
(tuple 14 28 20) 
(tuple 16 25 20) 
(tuple 18 25 20) 
(tuple 19 27 20) 
(tuple 23 24 20) 
(tuple 4 26 20) 
(tuple 14 28 20) 
(tuple 16 25 20) 
(tuple 18 25 20) 
(tuple 19 27 20) 
(tuple 23 24 20) 
(tuple 4 26 20) 
(tuple 14 28 20) 
(tuple 16 25 20) 
(tuple 18 25 20) 
(tuple 19 27 20) 
(set.singleton (tuple 23 24 20)))))

(declare-fun NODES () (Set (Tuple Int Int)))
(assert (= NODES (set.insert (tuple 1 1) 
(tuple 2 2) 
(tuple 3 3) 
(tuple 4 4) 
(tuple 5 5) 
(tuple 6 6) 
(tuple 7 7) 
(tuple 8 8) 
(tuple 9 9) 
(tuple 10 10) 
(tuple 11 11) 
(tuple 12 12) 
(tuple 13 13) 
(tuple 14 14) 
(tuple 15 15) 
(tuple 16 16) 
(tuple 17 17) 
(tuple 18 18) 
(tuple 19 19) 
(tuple 20 20) 
(tuple 21 21) 
(tuple 22 22) 
(set.singleton (tuple 23 23))))) 


(declare-fun obligation1 (Int) Bool)
(declare-fun obligation0 (Int) Bool)
(declare-fun queryCONSTPERMITUA_LeadAttorneys_approve_AcceptedCases_0 () Int)
(declare-fun queryCONSTPERMITAT_LeadAttorneys_approve_AcceptedCases_0 () Int)
(assert 
(and(member (mkTuple  -1  queryCONSTPERMITUA_LeadAttorneys_approve_AcceptedCases_0 ) (ASSIGN* 0))(member (mkTuple  queryCONSTPERMITUA_LeadAttorneys_approve_AcceptedCases_0 -1  queryCONSTPERMITAT_LeadAttorneys_approve_AcceptedCases_0 ) (ASSOC 0))(member (mkTuple  -1  queryCONSTPERMITAT_LeadAttorneys_approve_AcceptedCases_0 ) (ASSIGN* 0)))
)
(check-sat)
(get-value (obligation1))
(get-value (obligation0))
(get-value (obligation0U_0))
(get-value (obligation0UA_0))
(get-value (obligation0AT_0))
(get-value (obligation0UO_0))
(get-value (obligation0S_0))
(get-value (obligation0T_0))
(get-value (obligation0ar_0))
(get-value (obligation1U_0))
(get-value (obligation1UA_0))
(get-value (obligation1AT_0))
(get-value (obligation1UO_0))
(get-value (obligation1S_0))
(get-value (obligation1T_0))
(get-value (obligation1ar_0))
(get-value (obligation0U_0))
(get-value (obligation0UA_0))
(get-value (obligation0AT_0))
(get-value (obligation0UO_0))
(get-value (obligation0S_0))
(get-value (obligation0T_0))
(get-value (obligation0ar_0))
(get-value (obligation1U_0))
(get-value (obligation1UA_0))
(get-value (obligation1AT_0))
(get-value (obligation1UO_0))
(get-value (obligation1S_0))
(get-value (obligation1T_0))
(get-value (obligation1ar_0))
(get-value (obligation0U_1))
(get-value (obligation0UA_1))
(get-value (obligation0AT_1))
(get-value (obligation0UO_1))
(get-value (obligation0S_1))
(get-value (obligation0T_1))
(get-value (obligation0ar_1))
(get-value (obligation1U_1))
(get-value (obligation1UA_1))
(get-value (obligation1AT_1))
(get-value (obligation1UO_1))
(get-value (obligation1S_1))
(get-value (obligation1T_1))
(get-value (obligation1ar_1))
(get-value (obligation0U_0))
(get-value (obligation0UA_0))
(get-value (obligation0AT_0))
(get-value (obligation0UO_0))
(get-value (obligation0S_0))
(get-value (obligation0T_0))
(get-value (obligation0ar_0))
(get-value (obligation1U_0))
(get-value (obligation1UA_0))
(get-value (obligation1AT_0))
(get-value (obligation1UO_0))
(get-value (obligation1S_0))
(get-value (obligation1T_0))
(get-value (obligation1ar_0))
(get-value (obligation0U_1))
(get-value (obligation0UA_1))
(get-value (obligation0AT_1))
(get-value (obligation0UO_1))
(get-value (obligation0S_1))
(get-value (obligation0T_1))
(get-value (obligation0ar_1))
(get-value (obligation1U_1))
(get-value (obligation1UA_1))
(get-value (obligation1AT_1))
(get-value (obligation1UO_1))
(get-value (obligation1S_1))
(get-value (obligation1T_1))
(get-value (obligation1ar_1))
(get-value ((ASSIGN 0)))
(get-value ((ASSOC 0)))
